#######################################
### Exact MIP solver for the HHCRSP ###
#######################################
-- Instance file: new-instances/HHCRSP_75_15_28_1.2_R_C.txt
-- Max threads: 4
-- Time limit: 999999 seconds
-- Use initial solution: No
Trivial flow violations prevented generating 20394 variables.
Model exported.
Version identifier: 20.1.0.0 | 2020-11-10 | 9bedb6d68
CPXPARAM_Threads                                 4
CPXPARAM_TimeLimit                               999999
Parallel mode: deterministic, using up to 4 threads for concurrent optimization:
 * Starting dual Simplex on 1 thread...
 * Starting Barrier on 3 threads...
Tried aggregator 1 time.
LP Presolve eliminated 3102 rows and 745 columns.
Reduced LP has 21960 rows, 21140 columns, and 217287 nonzeros.
Presolve time = 0.11 sec. (59.58 ticks)
Symmetry aggregator did 17810 additional substitutions.
Initializing dual steep norms . . .

Iteration log . . .
Iteration:     1   Dual objective     =             0.666667

Dual crossover.
  Dual:  Fixing 137 variables.
      136 DMoves:  Infeasibility  4.13003117e-14  Objective  1.17000000e+02
        0 DMoves:  Infeasibility  3.65263527e-14  Objective  1.17000000e+02
  Dual:  Pushed 9, exchanged 128.
  Primal:  Fixing 58 variables.
       57 PMoves:  Infeasibility  2.22044605e-16  Objective  1.17000000e+02
        0 PMoves:  Infeasibility  2.49800181e-16  Objective  1.17000000e+02
  Primal:  Pushed 29, exchanged 29.

Dual simplex solved model.


Solution status from MIP model:
-- Processing time: 0.205 sec.
-- Memory used: 85.1035 MB
-- Best bound: inf
-- Obj value: 117
-- Gap: inf%
-- Total distance: 351
-- Total tardiness: 0
-- Largest tardiness: 0
